NAME: Random ATSP Instance
TYPE: ATSP
DIMENSION: 13
EDGE_WEIGHT_TYPE: EXPLICIT
EDGE_WEIGHT_FORMAT: FULL_MATRIX
EDGE_WEIGHT_SECTION
9999 11 18 9 13 20 5 8 19 7 16 4 9
8 9999 18 7 6 1 8 15 12 11 1 10 3
19 8 9999 15 2 4 14 1 13 9 6 14 5
19 16 9 9999 20 10 14 1 14 6 2 17 10
19 11 13 1 9999 17 1 14 14 8 11 4 14
20 13 11 9 15 9999 11 8 20 13 3 20 9
16 6 19 19 18 1 9999 12 11 15 2 16 6
1 17 16 19 14 19 16 9999 9 2 9 3 12
4 17 3 6 8 20 10 6 9999 18 9 20 2
17 4 9 19 7 17 1 8 15 9999 11 4 18
3 19 14 18 12 2 20 8 20 15 9999 9 16
10 7 5 7 6 12 3 7 17 12 14 9999 6
20 10 15 11 14 20 8 17 15 18 8 1 9999
EOF
